0000000000000000
0000000000000000
0000000000000000
0001100000000000
0001111111110000
0000000001100000
0000000001100000
0000000001100000
0000000001100000
0000000001100000
0000000001110000
0000000001100000
0000000011010000
0000000000000000
0000000000000000
0000000000000000
